(set-option :produce-models true)
(set-logic QF_UF)
(declare-fun p36() Bool)
(declare-fun p29() Bool)
(declare-fun p34() Bool)
(declare-fun p13() Bool)
(declare-fun p41() Bool)
(declare-fun p23() Bool)
(declare-fun p54() Bool)
(declare-fun p43() Bool)
(declare-fun p0() Bool)
(declare-fun p46() Bool)
(declare-fun p64() Bool)
(declare-fun p38() Bool)
(declare-fun p11() Bool)
(declare-fun p1() Bool)
(declare-fun p55() Bool)
(declare-fun p20() Bool)
(declare-fun p57() Bool)
(declare-fun p48() Bool)
(declare-fun p67() Bool)
(declare-fun p62() Bool)
(declare-fun p35() Bool)
(declare-fun p58() Bool)
(declare-fun p44() Bool)
(declare-fun p5() Bool)
(declare-fun p60() Bool)
(declare-fun p40() Bool)
(declare-fun p4() Bool)
(declare-fun p10() Bool)
(declare-fun p31() Bool)
(declare-fun p19() Bool)
(declare-fun p42() Bool)
(declare-fun p6() Bool)
(declare-fun p18() Bool)
(declare-fun p61() Bool)
(declare-fun p15() Bool)
(declare-fun p68() Bool)
(declare-fun p56() Bool)
(declare-fun p25() Bool)
(declare-fun p69() Bool)
(declare-fun p24() Bool)
(declare-fun p9() Bool)
(declare-fun p59() Bool)
(declare-fun p53() Bool)
(declare-fun p26() Bool)
(declare-fun p27() Bool)
(declare-fun p49() Bool)
(declare-fun p63() Bool)
(declare-fun p14() Bool)
(declare-fun p51() Bool)
(declare-fun p22() Bool)
(declare-fun p32() Bool)
(declare-fun p39() Bool)
(declare-fun p16() Bool)
(declare-fun p2() Bool)
(declare-fun p65() Bool)
(declare-fun p8() Bool)
(declare-fun p52() Bool)
(declare-fun p45() Bool)
(declare-fun p50() Bool)
(declare-fun p21() Bool)
(declare-fun p47() Bool)
(declare-fun p12() Bool)
(declare-fun p33() Bool)
(declare-fun p66() Bool)
(declare-fun p30() Bool)
(declare-fun p7() Bool)
(declare-fun p17() Bool)
(declare-fun p28() Bool)
(declare-fun p37() Bool)
(declare-fun p3() Bool)
(assert
(and (or (not p36) p29 (not p34)) (or (not p13) p41 (not p23)) (or (not p54) (not p43) (not p0)) (or p46 p64 (not p38)) (or (not p11) (not p1) (not p55)) (or p20 p57 (not p38)) (or (not p48) p67 p62) (or p41 p1 (not p35)) (or p23 p58 p44) (or p5 (not p60) (not p40)) (or (not p4) p4 p10) (or (not p29) (not p31) (not p19)) (or (not p62) p42 p6) (or p67 p18 p40) (or (not p61) (not p54) (not p57)) (or p15 p42 p15) (or p57 (not p29) (not p23)) (or p36 p1 p42) (or p68 p56 p25) (or p40 (not p4) (not p69)) (or p15 p24 p9) (or (not p59) p54 p23) (or p53 p10 p23) (or (not p26) p61 (not p11)) (or p43 (not p62) p31) (or (not p13) p27 p49) (or p6 (not p63) (not p14)) (or (not p59) (not p51) p62) (or (not p22) p15 (not p32)) (or (not p49) (not p32) (not p15)) (or (not p1) p24 p39) (or (not p40) p44 (not p48)) (or p6 p16 (not p2)) (or p43 (not p19) (not p59)) (or p65 (not p23) (not p51)) (or p19 p34 p16) (or p58 p26 p8) (or p56 p22 (not p53)) (or p4 p44 (not p6)) (or p26 p52 p19) (or p45 (not p14) (not p50)) (or p69 p64 (not p15)) (or p39 (not p35) (not p31)) (or p62 p42 (not p52)) (or (not p58) p60 (not p6)) (or (not p4) (not p40) p68) (or p58 p67 (not p64)) (or p13 (not p58) p21) (or (not p27) (not p60) (not p35)) (or (not p10) p1 p67) (or p22 p5 p50) (or (not p55) p22 (not p56)) (or (not p34) p5 (not p35)) (or (not p23) p38 (not p36)) (or p64 p11 p36) (or (not p67) p49 p55) (or (not p41) (not p47) p40) (or p20 (not p67) (not p16)) (or p52 (not p64) p12) (or p53 (not p33) p19) (or p25 (not p60) p36) (or p32 p65 (not p35)) (or p65 p61 (not p22)) (or p33 (not p47) p24) (or p21 (not p39) (not p49)) (or (not p55) p24 p66) (or (not p32) p51 p5) (or (not p52) (not p24) (not p64)) (or (not p47) p10 (not p12)) (or p35 (not p52) p30) (or p14 p44 p65) (or (not p63) (not p10) p26) (or (not p9) (not p21) p51) (or p35 p54 p21) (or (not p30) p66 (not p53)) (or (not p9) (not p7) p22) (or (not p38) (not p55) p65) (or p25 p68 p35) (or p54 (not p19) p66) (or p68 p69 p27) (or p52 (not p13) p52) (or p48 p68 (not p18)) (or p15 p54 (not p64)) (or p15 p42 p66) (or p42 (not p4) (not p56)) (or (not p17) p62 p7) (or p35 p51 (not p47)) (or (not p47) (not p8) p9) (or (not p38) p34 p52) (or (not p50) p47 (not p66)) (or (not p24) p2 p20) (or (not p60) (not p29) (not p59)) (or p28 p12 p39) (or p36 p62 (not p9)) (or (not p51) p33 (not p35)) (or p20 p67 p44) (or p24 (not p0) p15) (or (not p10) p18 (not p34)) (or p52 (not p36) (not p26)) (or (not p1) (not p32) p42) (or (not p64) p25 p38) (or (not p60) (not p61) p9) (or (not p1) (not p17) (not p38)) (or (not p2) (not p13) (not p69)) (or p33 (not p17) p9) (or p49 (not p17) p38) (or p47 p37 (not p53)) (or (not p50) p29 p42) (or (not p18) (not p4) p63) (or p49 (not p24) p65) (or (not p61) (not p68) p0) (or (not p21) (not p27) p27) (or p53 p11 (not p6)) (or p12 (not p57) (not p43)) (or (not p36) p21 p14) (or (not p36) p53 (not p40)) (or p61 (not p26) p45) (or (not p53) (not p58) (not p36)) (or p28 (not p4) p1) (or (not p9) p39 (not p7)) (or (not p38) p59 (not p65)) (or p66 p62 (not p12)) (or (not p10) (not p44) p68) (or (not p28) (not p61) (not p35)) (or p17 (not p6) p46) (or (not p14) (not p28) (not p40)) (or (not p5) p52 (not p11)) (or (not p10) (not p60) p20) (or p17 (not p32) (not p52)) (or (not p5) p18 p62) (or p31 (not p0) (not p21)) (or p42 p59 (not p24)) (or p67 (not p1) (not p46)) (or p31 p14 (not p10)) (or p48 (not p59) (not p19)) (or p2 p8 p5) (or p56 p57 (not p37)) (or (not p36) (not p53) (not p41)) (or (not p7) (not p59) (not p28)) (or p28 (not p23) p54) (or (not p16) p20 (not p28)) (or (not p38) (not p11) p9) (or p62 (not p66) p66) (or (not p41) p5 (not p45)) (or p29 p12 p47) (or (not p52) (not p58) (not p53)) (or p56 p44 (not p58)) (or (not p60) p27 p67) (or p32 p15 p29) (or (not p29) (not p24) (not p66)) (or (not p51) (not p24) (not p15)) (or p2 p24 p61) (or (not p43) p32 (not p60)) (or (not p68) p37 (not p61)) (or p18 p13 (not p34)) (or (not p25) p61 p58) (or (not p44) (not p27) (not p1)) (or p32 (not p16) p8) (or p20 p30 p56) (or p59 (not p52) (not p8)) (or p29 (not p35) (not p57)) (or p22 (not p3) p46) (or p2 p36 p14) (or (not p65) p50 (not p59)) (or p3 p14 (not p66)) (or p38 p36 (not p46)) (or (not p10) (not p16) (not p5)) (or p31 p32 p42) (or (not p57) (not p46) (not p11)) (or (not p43) (not p5) p13) (or (not p58) (not p49) p6) (or (not p37) (not p37) (not p30)) (or (not p37) (not p10) (not p51)) (or p6 p12 (not p8)) (or p25 p17 (not p38)) (or p51 p62 (not p69)) (or (not p20) (not p46) p4) (or (not p50) (not p25) (not p49)) (or (not p12) p54 p2) (or (not p67) p65 p13) (or p41 (not p52) (not p50)) (or p68 p10 p60) (or (not p61) (not p48) (not p9)) (or p35 (not p30) (not p20)) (or (not p58) (not p34) (not p50)) (or p27 p7 (not p5)) (or p62 (not p27) p49) (or p25 p66 p37) (or p24 (not p32) (not p59)) (or p45 p24 p28) (or p37 p7 (not p37)) (or (not p22) (not p22) p59) (or p51 (not p69) p8) (or (not p39) (not p50) p59) (or (not p64) (not p5) (not p29)) (or p40 p8 p60) (or (not p62) (not p22) (not p26)) (or (not p66) (not p13) p36) (or (not p31) (not p41) p29) (or (not p42) p41 p11) (or p15 p4 p5) (or (not p4) p27 (not p22)) (or (not p7) (not p14) p40) (or p21 p21 (not p13)) (or p51 p23 p11) (or (not p46) p29 (not p68)) (or p49 (not p65) (not p35)) (or (not p60) p20 (not p18)) (or (not p59) p55 (not p68)) (or p65 p9 p63) (or (not p13) (not p15) p42) (or p55 (not p50) (not p67)) (or p46 p31 p17) (or (not p12) (not p56) p31) (or (not p60) (not p6) (not p6)) (or (not p41) p2 p24) (or (not p61) p9 p58) (or (not p60) p53 p52) (or p25 p50 (not p41)) (or p68 (not p39) p66) (or (not p5) (not p56) p61) (or p27 (not p57) p66) (or p0 p65 (not p64)) (or (not p69) p54 p30) (or (not p15) (not p32) (not p49)) (or p42 (not p44) (not p68)) (or p11 p15 (not p52)) (or (not p57) (not p27) p8) (or p24 (not p66) (not p53)) (or p8 (not p35) (not p45)) (or p8 p65 p36) (or (not p29) (not p56) (not p4)) (or (not p67) p66 p22) (or (not p25) (not p28) p45) (or (not p35) p14 p30) (or (not p48) p18 (not p10)) (or p52 (not p27) p68) (or (not p20) (not p25) (not p27)) (or p59 (not p57) p52) (or p11 p51 p69) (or (not p11) (not p17) (not p6)) (or p20 (not p27) (not p9)) (or (not p24) p53 (not p62)) (or p26 p36 p13) (or p52 p60 (not p58)) (or (not p6) p4 p40) (or (not p12) (not p24) p61) (or (not p43) p63 p8) (or p46 (not p52) p68) (or (not p43) p8 (not p28)) (or (not p13) (not p2) (not p0)) (or p56 p17 p30) (or (not p64) (not p18) (not p15)) (or (not p54) p29 (not p45)) (or (not p25) (not p69) (not p35)) (or (not p10) p44 p39) (or (not p48) (not p52) (not p43)) (or p7 p36 p41) (or p41 (not p19) (not p61)) (or p14 (not p13) p22) (or (not p6) p6 (not p37)) (or p12 (not p34) p29) (or (not p1) p67 p25) (or (not p45) p53 (not p23)) (or p7 (not p36) (not p34)) (or p3 p5 p66) (or (not p25) p25 (not p36)) (or p32 (not p7) p49) (or p39 (not p55) p51) (or (not p3) p64 (not p36)) (or p68 p8 (not p69)) (or p7 p34 p46) (or (not p56) (not p60) (not p44)) (or p69 (not p38) p40) (or (not p35) p25 (not p59)) (or (not p43) p13 p33) (or p57 p4 p68) (or (not p44) (not p32) p39) (or p17 (not p4) p65) (or (not p62) (not p62) (not p61)) (or (not p6) p4 (not p50)) (or p2 p55 (not p62)) (or p13 p34 (not p51)) (or p39 p54 (not p12)) (or p49 p21 (not p34)) (or (not p5) (not p68) p64) (or (not p18) p40 p26) (or p42 p33 (not p65)) (or p39 (not p3) p28) (or p68 (not p8) p0) (or p42 (not p40) (not p61)) (or p7 (not p28) (not p0)) (or p20 (not p13) (not p10)) (or (not p2) p12 (not p26)) (or p14 (not p51) (not p44)) (or p27 (not p16) (not p68)) (or (not p65) p6 (not p39)))
)
(check-sat)
(get-model)
